\ENCODING=ISO-8859-1
\Problem name: IloCplex

Minimize
 obj: y1 + y2 + y3 + y4 + y5 + y6 + y7 + y8 + y9 + y10 + y11 + y12 + y13
Subject To
 c1:  - 14 y1 + f_0_1 <= 0
 c2:  - 14 y2 + f_0_2 <= 0
 c3:  - 14 y3 + f_0_3 <= 0
 c4:  - 14 y4 + f_0_4 <= 0
 c5:  - 14 y5 + f_0_5 <= 0
 c6:  - 14 y6 + f_0_6 <= 0
 c7:  - 14 y7 + f_0_7 <= 0
 c8:  - 14 y8 + f_0_8 <= 0
 c9:  - 14 y9 + f_0_9 <= 0
 c10: - 14 y10 + f_0_10 <= 0
 c11: - 14 y11 + f_0_11 <= 0
 c12: - 14 y12 + f_0_12 <= 0
 c13: - 14 y13 + f_0_13 <= 0
 c14: f_0_1 + f_2_1 + f_12_1 - f_1_2 - f_1_12 - f_1_0  = 1
 c15: f_0_2 - f_2_1 + f_1_2 + f_3_2 - f_2_3 - f_2_0  = 1
 c16: f_0_3 - f_3_2 + f_2_3 + f_4_3 - f_3_4 - f_3_0  = 1
 c17: f_0_4 - f_4_3 + f_3_4 + f_5_4 - f_4_5 - f_4_0  = 1
 c18: f_0_5 - f_5_4 + f_4_5 + f_6_5 + f_8_5 + f_9_5 + f_11_5 + f_13_5 - f_5_6
      - f_5_8 - f_5_9 - f_5_11 - f_5_13 - f_5_0  = 1
 c19: f_0_6 - f_6_5 + f_5_6 + f_7_6 - f_6_7 - f_6_0  = 1
 c20: f_0_7 - f_7_6 + f_6_7 + f_8_7 - f_7_8 - f_7_0  = 1
 c21: f_0_8 - f_8_5 + f_5_8 - f_8_7 + f_7_8 + f_9_8 - f_8_9 - f_8_0  = 1
 c22: f_0_9 - f_9_5 + f_5_9 - f_9_8 + f_8_9 + f_10_9 - f_9_10 - f_9_0  = 1
 c23: f_0_10 - f_10_9 + f_9_10 + f_11_10 - f_10_11 - f_10_0  = 1
 c24: f_0_11 - f_11_5 + f_5_11 - f_11_10 + f_10_11 + f_12_11 - f_11_12 - f_11_0
       = 1
 c25: f_0_12 - f_12_1 + f_1_12 - f_12_11 + f_11_12 + f_13_12 - f_12_13 - f_12_0
       = 1
 c26: f_0_13 - f_13_5 + f_5_13 - f_13_12 + f_12_13 - f_13_0  = 1
Bounds
 0 <= y1 <= 1
 0 <= y2 <= 1
 0 <= y3 <= 1
 0 <= y4 <= 1
 0 <= y5 <= 1
 0 <= y6 <= 1
 0 <= y7 <= 1
 0 <= y8 <= 1
 0 <= y9 <= 1
 0 <= y10 <= 1
 0 <= y11 <= 1
 0 <= y12 <= 1
 0 <= y13 <= 1
Binaries
 y1  y2  y3  y4  y5  y6  y7  y8  y9  y10  y11  y12  y13 
End
